NAME: tsp50_21
COMMENT: 50-tsp problem (Padberg/Rinaldi)
TYPE: TSP
DIMENSION: 50
EDGE_WEIGHT_TYPE : EUC_2D
NODE_COORD_SECTION
1 19 6
2 20 29
3 10 33
4 36 29
5 19 36
6 6 22
7 32 7
8 17 23
9 26 24
10 23 6
11 39 9
12 2 10
13 16 6
14 20 21
15 5 1
16 38 30
17 27 4
18 26 20
19 18 20
20 1 38
21 23 31
22 13 13
23 31 28
24 37 35
25 22 16
26 27 20
27 28 7
28 8 21
29 36 11
30 29 34
31 39 4
32 40 39
33 29 4
34 39 8
35 36 13
36 21 40
37 15 4
38 38 10
39 26 33
40 22 14
41 34 34
42 27 40
43 2 11
44 7 24
45 29 6
46 12 20
47 26 21
48 24 23
49 36 26
50 36 16
